&CONTROL
  calculation = 'vc-relax',
  restart_mode = 'from_scratch',
  prefix = 'NAME',
  verbosity = 'high',
  etot_conv_thr = 2.0D-6,
  forc_conv_thr = 6.0D-4,
  nstep = 250,
/
&SYSTEM
  ibrav = 14,
  ntyp = 7,
  nat = 44
  a = 6.216801
  b = 7.808147
  c = 9.886852
  cosBC = 97.349219
  cosAC = 97.823419
  cosAB = 90.398571
  ecutwfc = 50.000000,
  ecutrho = 550.000000,
  vdw_corr = 'XDM',
  xdm_a1 = 0.6512,
  xdm_a2 = 1.4633,
/
&ELECTRONS
  electron_maxstep = 1500,
  conv_thr = 1.D-8,
  scf_must_converge = .TRUE.,
  mixing_beta = 0.5D0,
/
&IONS
  ion_dynamics = 'bfgs',
/
&CELL
  cell_dynamics = 'bfgs',
/
ATOMIC_SPECIES
 H 1.00 H.b86bpbe.UPF
 C 12.0 C.b86bpbe.UPF
 O 16.0 O.b86bpbe.UPF
 N 14.0 N.b86bpbe.UPF
 S 32.0 S.b86bpbe.UPF
 Cl 35.0 Cl.b86bpbe.UPF
 F 19.0 N.b86bpbe.UPF

K_POINTS automatic
3 2 2 1 1 1

ATOMIC_POSITIONS crystal
C	 -0.568986  0.37956  -0.450601 
C	  -0.454662  0.93869  -0.240398 
C	  -0.990875  0.380275 -0.099926 
C	  -0.191901  0.438483 -0.179396 
C	  -0.370681  0.441497 -0.103478 
C	  -0.220197  0.968    -0.419454 
C	  -0.428459  0.536478 -0.398734 
C	  -0.431016  0.620442 -0.549404 
C	  -0.292401  0.875609 -0.305494 
C	  -0.523657  0.799803 -0.59404  
C	  -0.54592   0.101712 -0.291976 
C	  -0.687513  0.868985 -0.531402 
C	  -0.454083  0.898291 -0.708029 
C	  -0.779806  0.032001 -0.580545 
C	  -0.571545  0.463525 -0.60127  
C	  -0.545341  0.061315 -0.759604 
C	  -0.476346  0.200196 -0.405964 
C	  -0.21596   0.48597  -0.318003 
C	  -0.784044  0.514031 -0.682    
C	  -0.312492  0.131014 -0.468599 
C	  -0.00913   0.619728 -0.900077 
C	  -0.707601  0.124394 -0.694505 
C	  -0.808103  0.561518 -0.820608 
C	  -0.629321  0.5585   -0.896523 
F	  -0.199707  0.71686  -0.255368 
F	  -0.800291  0.283144 -0.744626 
H	  -0.728406  0.390142 -0.416538 
H	  -0.073036  0.477229 -0.369933 
H	  -0.525358  0.607243 -0.338642 
H	  -0.747371  0.795069 -0.443887 
H	  -0.325994  0.846591 -0.757419 
H	  -0.906393  0.086401 -0.532057 
H	  -0.491638  0.13869  -0.84778  
H	  -0.926966  0.522772 -0.630069 
H	  -0.474648  0.392756 -0.661362 
H	  -0.252631  0.204931 -0.556115 
H	  -0.271597  0.609855 -0.583468 
H	  -0.093607  0.913599 -0.467941 
H	  -0.508364  0.861315 -0.15222  
H	  -0.67401   0.153415 -0.242585 
N	  -0.515669  0.442081 -0.040533 
N	  -0.484336  0.557916 -0.959471 
N	  -0.16847   0.669549 -0.97066  
N	  -0.831533  0.330452 -0.029346 